benchmarks_CP/INST_36x36/25/inst36x36_25_43.dzn
S=6;
start=[|
-1,	-1,	-1,	-1,	-1,	-1,	33,	-1,	-1,	35,	-1,	30,	-1,	-1,	-1,	-1,	-1,	20,	-1,	-1,	-1,	-1,	-1,	-1,	-1,	15,	-1,	-1,	-1,	-1,	26,	-1,	-1,	36,	23,	-1|
29,	18,	28,	5,	15,	-1,	-1,	-1,	-1,	-1,	-1,	-1,	-1,	-1,	-1,	-1,	-1,	-1,	12,	-1,	-1,	11,	-1,	-1,	-1,	-1,	20,	-1,	-1,	25,	-1,	-1,	-1,	-1,	-1,	-1|
30,	-1,	-1,	-1,	-1,	33,	-1,	36,	-1,	-1,	-1,	-1,	-1,	34,	-1,	11,	-1,	-1,	2,	10,	4,	-1,	23,	-1,	-1,	-1,	-1,	-1,	-1,	-1,	-1,	-1,	-1,	-1,	-1,	27|
4,	26,	23,	-1,	-1,	-1,	18,	-1,	-1,	-1,	-1,	-1,	19,	-1,	-1,	25,	-1,	-1,	-1,	-1,	-1,	-1,	-1,	-1,	-1,	31,	-1,	-1,	-1,	3,	-1,	-1,	-1,	-1,	-1,	-1|
-1,	-1,	-1,	-1,	35,	-1,	2,	-1,	-1,	11,	-1,	-1,	-1,	-1,	-1,	-1,	-1,	-1,	3,	-1,	-1,	33,	-1,	8,	-1,	-1,	-1,	-1,	-1,	22,	20,	-1,	-1,	-1,	-1,	-1|
-1,	-1,	-1,	-1,	-1,	2,	6,	-1,	-1,	-1,	-1,	-1,	-1,	-1,	-1,	-1,	31,	-1,	-1,	-1,	-1,	34,	-1,	-1,	-1,	-1,	-1,	-1,	-1,	-1,	-1,	3,	-1,	-1,	-1,	-1|
-1,	-1,	-1,	-1,	-1,	11,	30,	-1,	-1,	-1,	-1,	-1,	-1,	-1,	-1,	36,	-1,	3,	-1,	2,	-1,	-1,	-1,	-1,	-1,	-1,	-1,	-1,	-1,	-1,	29,	-1,	-1,	-1,	-1,	-1|
-1,	24,	-1,	-1,	-1,	-1,	-1,	14,	-1,	-1,	-1,	-1,	23,	17,	-1,	-1,	30,	6,	8,	-1,	-1,	32,	-1,	-1,	9,	-1,	-1,	-1,	-1,	-1,	-1,	-1,	31,	-1,	34,	-1|
-1,	7,	1,	-1,	28,	-1,	29,	-1,	-1,	16,	-1,	34,	-1,	10,	4,	-1,	-1,	-1,	-1,	3,	-1,	-1,	-1,	-1,	30,	2,	-1,	-1,	-1,	-1,	-1,	-1,	-1,	-1,	-1,	11|
-1,	-1,	-1,	-1,	26,	-1,	-1,	19,	-1,	-1,	-1,	-1,	-1,	15,	1,	-1,	-1,	-1,	4,	-1,	-1,	-1,	18,	-1,	-1,	-1,	-1,	-1,	-1,	-1,	-1,	2,	23,	-1,	-1,	-1|
-1,	-1,	-1,	-1,	-1,	-1,	-1,	-1,	-1,	-1,	-1,	3,	-1,	18,	-1,	-1,	-1,	-1,	-1,	-1,	17,	-1,	10,	-1,	-1,	-1,	-1,	-1,	-1,	-1,	-1,	33,	-1,	12,	-1,	-1|
25,	-1,	35,	2,	-1,	-1,	-1,	-1,	-1,	31,	11,	-1,	-1,	-1,	20,	-1,	-1,	29,	30,	-1,	-1,	19,	7,	-1,	-1,	-1,	-1,	-1,	-1,	32,	15,	-1,	6,	-1,	-1,	-1|
-1,	-1,	2,	-1,	-1,	-1,	-1,	-1,	-1,	-1,	-1,	-1,	-1,	-1,	-1,	-1,	-1,	-1,	21,	-1,	-1,	-1,	20,	-1,	16,	-1,	-1,	19,	-1,	-1,	-1,	-1,	-1,	-1,	-1,	-1|
-1,	-1,	31,	-1,	30,	-1,	-1,	-1,	-1,	8,	29,	-1,	12,	-1,	-1,	-1,	-1,	5,	-1,	-1,	-1,	-1,	-1,	-1,	-1,	-1,	-1,	10,	-1,	-1,	21,	-1,	-1,	-1,	-1,	-1|
-1,	19,	-1,	-1,	27,	5,	-1,	-1,	4,	-1,	-1,	21,	15,	29,	-1,	17,	-1,	33,	-1,	-1,	-1,	-1,	-1,	13,	-1,	28,	-1,	-1,	23,	-1,	-1,	-1,	-1,	-1,	12,	-1|
11,	-1,	-1,	-1,	-1,	-1,	-1,	-1,	20,	-1,	-1,	-1,	-1,	-1,	-1,	-1,	3,	-1,	-1,	31,	-1,	12,	-1,	-1,	-1,	29,	6,	-1,	9,	8,	23,	-1,	-1,	16,	-1,	35|
8,	-1,	16,	-1,	-1,	6,	34,	-1,	-1,	13,	12,	-1,	-1,	-1,	-1,	27,	-1,	-1,	-1,	-1,	-1,	22,	-1,	-1,	-1,	24,	26,	20,	-1,	17,	33,	-1,	-1,	-1,	-1,	28|
23,	-1,	-1,	-1,	34,	-1,	-1,	-1,	-1,	-1,	-1,	-1,	-1,	-1,	-1,	9,	-1,	21,	-1,	-1,	-1,	28,	1,	-1,	-1,	32,	5,	-1,	-1,	27,	-1,	-1,	-1,	-1,	4,	20|
-1,	-1,	-1,	33,	-1,	-1,	-1,	-1,	-1,	-1,	2,	-1,	4,	-1,	3,	-1,	-1,	-1,	-1,	-1,	36,	-1,	24,	35,	32,	-1,	-1,	-1,	-1,	28,	-1,	-1,	-1,	-1,	-1,	-1|
-1,	11,	-1,	-1,	-1,	-1,	-1,	-1,	-1,	-1,	-1,	-1,	-1,	-1,	-1,	-1,	-1,	-1,	15,	9,	1,	-1,	34,	-1,	-1,	-1,	-1,	-1,	26,	-1,	-1,	-1,	21,	-1,	-1,	18|
-1,	-1,	-1,	-1,	-1,	4,	20,	-1,	-1,	-1,	-1,	17,	-1,	35,	-1,	-1,	21,	-1,	-1,	11,	6,	-1,	-1,	-1,	-1,	-1,	-1,	-1,	-1,	-1,	-1,	-1,	-1,	-1,	-1,	-1|
-1,	-1,	-1,	8,	-1,	28,	-1,	-1,	-1,	19,	-1,	-1,	-1,	-1,	-1,	-1,	9,	-1,	32,	-1,	-1,	-1,	-1,	-1,	35,	-1,	-1,	3,	-1,	-1,	-1,	-1,	-1,	-1,	-1,	17|
-1,	2,	-1,	35,	1,	-1,	-1,	32,	25,	-1,	-1,	29,	-1,	-1,	11,	-1,	-1,	-1,	-1,	-1,	-1,	13,	-1,	-1,	22,	-1,	4,	-1,	-1,	-1,	-1,	-1,	-1,	3,	-1,	-1|
-1,	-1,	-1,	23,	3,	17,	-1,	-1,	-1,	22,	-1,	-1,	29,	-1,	32,	24,	-1,	-1,	-1,	14,	-1,	-1,	-1,	-1,	7,	-1,	-1,	9,	-1,	-1,	-1,	-1,	-1,	6,	-1,	-1|
-1,	-1,	-1,	14,	25,	-1,	-1,	-1,	9,	-1,	-1,	-1,	28,	-1,	-1,	-1,	-1,	-1,	-1,	-1,	31,	-1,	16,	-1,	-1,	5,	-1,	26,	18,	-1,	-1,	-1,	-1,	-1,	-1,	-1|
-1,	-1,	-1,	-1,	22,	-1,	-1,	-1,	-1,	14,	-1,	-1,	-1,	3,	-1,	-1,	-1,	-1,	-1,	-1,	-1,	-1,	-1,	-1,	-1,	33,	-1,	-1,	13,	-1,	-1,	-1,	32,	7,	-1,	-1|
5,	-1,	-1,	-1,	6,	-1,	-1,	-1,	31,	26,	-1,	-1,	-1,	-1,	-1,	-1,	-1,	-1,	7,	32,	-1,	-1,	-1,	-1,	-1,	-1,	-1,	-1,	-1,	-1,	-1,	10,	33,	-1,	-1,	-1|
-1,	-1,	-1,	-1,	-1,	-1,	-1,	-1,	-1,	-1,	-1,	-1,	-1,	24,	29,	-1,	-1,	-1,	9,	-1,	-1,	-1,	-1,	-1,	20,	-1,	-1,	28,	16,	14,	-1,	-1,	-1,	-1,	21,	-1|
13,	-1,	7,	-1,	-1,	26,	-1,	-1,	10,	18,	-1,	6,	-1,	-1,	5,	-1,	-1,	-1,	-1,	-1,	-1,	21,	-1,	-1,	-1,	-1,	-1,	-1,	-1,	-1,	-1,	-1,	-1,	24,	-1,	-1|
16,	-1,	30,	-1,	17,	36,	-1,	-1,	-1,	-1,	32,	1,	-1,	-1,	-1,	-1,	-1,	-1,	13,	-1,	-1,	3,	-1,	19,	-1,	-1,	10,	-1,	-1,	-1,	-1,	35,	-1,	-1,	-1,	2|
-1,	-1,	5,	-1,	9,	-1,	-1,	-1,	-1,	-1,	-1,	-1,	-1,	8,	-1,	7,	-1,	-1,	-1,	-1,	-1,	-1,	-1,	-1,	-1,	27,	-1,	14,	-1,	-1,	-1,	-1,	-1,	17,	-1,	34|
-1,	-1,	-1,	36,	-1,	8,	-1,	-1,	-1,	-1,	-1,	-1,	34,	-1,	-1,	-1,	-1,	-1,	-1,	-1,	-1,	-1,	-1,	-1,	10,	-1,	-1,	-1,	-1,	12,	-1,	21,	-1,	-1,	-1,	19|
-1,	-1,	-1,	-1,	-1,	-1,	-1,	33,	-1,	-1,	-1,	7,	-1,	-1,	22,	-1,	-1,	-1,	-1,	18,	-1,	-1,	-1,	-1,	-1,	-1,	-1,	-1,	-1,	35,	-1,	-1,	-1,	-1,	-1,	3|
-1,	-1,	-1,	-1,	-1,	-1,	-1,	-1,	-1,	29,	-1,	-1,	-1,	-1,	-1,	-1,	-1,	-1,	35,	-1,	21,	-1,	-1,	26,	-1,	9,	-1,	-1,	-1,	36,	-1,	-1,	-1,	33,	-1,	-1|
-1,	-1,	-1,	-1,	-1,	-1,	-1,	-1,	14,	-1,	-1,	-1,	-1,	20,	-1,	1,	-1,	-1,	-1,	33,	-1,	15,	-1,	28,	-1,	4,	7,	2,	-1,	-1,	6,	-1,	-1,	-1,	-1,	36|
-1,	-1,	-1,	-1,	-1,	25,	-1,	-1,	-1,	28,	-1,	-1,	11,	-1,	13,	-1,	-1,	-1,	-1,	29,	32,	-1,	-1,	2,	-1,	-1,	33,	16,	-1,	-1,	-1,	-1,	-1,	15,	-1,	5|];
